4 
5  06 26 42 57 
6  12 27 42 57 
7  12 27 42 57 
8  12 27 42 57 
9  10 25 40 55 
10  10 25 40 55 
11  10 25 40 55 
12  10 25 40 55 
13  11 26 41 56 
14  12 26 41 56 
15  09 24 39 54 
16  09 24 39 54 
17  09 24 39 54 
18  09 26 41 56 
19  10 25 40 55 
20 
